%mem=100GB
%nprocshared=28
%chk=s1-H.chk
# opt b3lyp/6-31g(d,p) pop=min scf=(xqc,tight)

Complex s203-azi

1 1
 N                  3.09647269    5.59483318    4.91724175
 H                  3.85579595    6.20252961    4.68467199
 C                  1.95091177    6.39540897    5.37315650
 H                  1.13730361    5.74614886    5.62099900
 C                  2.35479568    7.20903426    6.61661566
 C                  1.51949564    7.35467373    4.24873937
 H                  2.65557529    6.54182471    7.39722760
 H                  3.16852298    7.85831300    6.36922599
 O                  1.24037121    7.98839046    7.05866868
 O                  1.68973069    7.02726662    3.04565424
 H                  1.49198008    8.49569428    7.83381614
 N                  0.91059700    8.65210665    4.57584512
 H                  0.40601612    8.57851560    5.43602293
 C                 -0.00814332    9.04234806    3.49732489
 H                  0.53432841    9.11237503    2.57756219
 C                 -1.11863431    7.98420841    3.36023969
 C                 -0.63866535   10.40900133    3.82322930
 H                 -0.68072656    7.03512803    3.13136522
 H                 -1.66030406    7.91448496    4.28036944
 O                 -2.01121246    8.36334420    2.30921190
 O                 -0.00328381   11.24834087    4.51294030
 H                 -2.70370606    7.70395977    2.22403880
 N                 -1.98239660   10.73241613    3.32340653
 H                 -1.90614997   11.14995404    2.41794037
 C                 -2.64059448   11.67601121    4.23849627
 H                 -2.73248908   11.23269225    5.20800033
 C                 -1.79962136   12.96188803    4.34161026
 C                 -4.03841868   12.01933533    3.69165672
 H                 -0.82696905   12.72261832    4.71798539
 C                 -1.66754555   13.60235200    2.94745773
 C                 -2.49070310   13.95191561    5.29755926
 O                 -4.67878566   11.16536746    3.02541180
 H                 -2.64030078   13.84157303    2.57132956
 H                 -1.08328461   14.49587205    3.01939440
 H                 -1.18738740   12.91474335    2.28301787
 H                 -2.99014890   14.70782116    4.72827759
 H                 -3.20441371   13.42826392    5.89868165
 C                 -1.43561619   14.60762133    6.20769134
 H                 -0.72189309   15.13119523    5.60653567
 H                 -1.91554742   15.29561853    6.87196423
 H                 -0.93629169   13.85159718    6.77694734
 N                 -4.62411710   13.34403639    3.94133415
 H                 -4.29695767   13.69560458    4.81865653
 C                 -6.08991929   13.23839501    3.97065733
 H                 -6.43679466   12.84528529    3.03801850
 C                 -6.51769922   12.29997066    5.11455293
 C                 -6.69679010   14.63570006    4.19299335
 H                 -6.44661214   11.28370186    4.78756690
 C                 -5.59333264   12.51504292    6.32737117
 C                 -7.97165631   12.60940037    5.51681649
 O                 -6.08344362   15.65593551    3.78463329
 H                 -5.66442019   13.53144640    6.65420079
 H                 -5.89035535   11.86321667    7.12221952
 H                 -4.58299912   12.29995245    6.04838274
 H                 -8.61429555   12.46009521    4.67451073
 H                 -8.26816750   11.95736548    6.31174349
 H                 -8.04265470   13.62572923    5.84392848
 N                 -7.98934546   14.78601590    4.87590603
 H                 -8.55284944   13.97633981    4.71118355
 C                 -8.67100678   15.97666284    4.34857884
 H                 -8.06530960   16.84077707    4.52525622
 C                 -8.89468022   15.80617902    2.83434943
 C                -10.03062576   16.15433149    5.05003096
 H                 -7.95024953   15.68628409    2.34575401
 H                 -9.49971981   14.94147992    2.65821425
 O                 -9.55553626   16.96371333    2.31656607
 O                -10.66027899   15.15111490    5.47536302
 H                 -9.69473976   16.85732211    1.37261025
 N                -10.58872712   17.50415056    5.21759685
 H                 -9.84083230   18.16185212    5.30637679
 C                -11.42764852   17.55300498    6.42380500
 H                -12.23339950   16.85587671    6.32731929
 C                -10.58068512   17.18863763    7.65735826
 C                -11.99359965   18.97604182    6.58844449
 H                -10.18773217   16.20032340    7.54027718
 H                 -9.77352520   17.88426565    7.75412398
 C                -11.46106128   17.24522487    8.91995516
 O                -12.20149645   19.68841422    5.57204237
 C                -10.89175981   17.57547076   10.15736315
 C                -12.83161955   16.96670582    8.83131091
 H                 -9.84507975   17.78727303   10.22541812
 C                -11.69340300   17.62801409   11.30569783
 C                -13.63320132   17.02012581    9.97948014
 H                -13.26601010   16.71322799    7.88682233
 H                -11.25884091   17.87963667   12.25062202
 C                -13.06423844   17.35116870   11.21652322
 H                -14.67965267   16.80827401    9.91156336
 H                -13.67640665   17.39235647   12.09304107
 N                -12.29121828   19.50742197    7.92619319
 H                -12.56217976   18.75899482    8.53129873
 C                -13.38576483   20.48410797    7.82578099
 H                -13.09066927   21.28172423    7.17646597
 C                -14.64005371   19.79597962    7.25508853
 C                -13.70143455   21.05004548    9.22283652
 H                -14.41917336   19.39677308    6.28711091
 H                -14.94022465   19.00285561    7.90760999
 C                -15.77955549   20.82575246    7.13641731
 O                -13.51944576   20.33967950   10.24568096
 C                -17.11400693   20.41624553    7.26291015
 C                -15.48012181   22.17432062    6.90036153
 H                -17.34311583   19.38694778    7.44503939
 C                -18.14861820   21.35541054    7.15028378
 C                -16.51434480   23.11299980    6.78772293
 H                -14.46126549   22.48707302    6.80553249
 H                -19.16750506   21.04305511    7.24647044
 C                -17.84868757   22.70357182    6.91146424
 H                -16.28509222   24.14233505    6.60699474
 O                -18.90390235   23.66155583    6.79359820
 H                -19.65015481   23.38366498    7.32944691
 C                  3.51397151    4.67871655    5.98791592
 O                  2.66684941    4.24296571    6.81010260
 C                  4.98941127    4.25244393    6.10258148
 H                  5.43623750    4.24923022    5.13027242
 H                  5.51179093    4.94147871    6.73286734
 H                  5.04541038    3.27057056    6.52405772
 N                -14.21526794   22.42057438    9.36102759
 H                -14.80144157   22.47710924   10.16928608
 H                -13.44896368   23.05535459    9.45998119
 H                  2.26679079    6.61926105    1.93679977

