%mem=100gb
%nproc=28       
%Chk=y7-H.chk
# opt(restart) b3lyp/6-31g(d,p) pop=min scf=(xqc,tight)


