%mem=100GB
%nprocshared=28
%chk=s5-H.chk
# opt b3lyp/6-31g(d,p) pop=min scf=(xqc,tight)

Complex s203-azi

1 1
 N                  3.11378907    5.63773399    4.85571044
 H                  3.87311233    6.24543042    4.62314068
 C                  1.96822815    6.43830978    5.31162519
 H                  1.15461999    5.78904967    5.55946769
 C                  2.37211206    7.25193507    6.55508435
 C                  1.53681202    7.39757454    4.18720806
 H                  2.67289167    6.58472552    7.33569629
 H                  3.18583936    7.90121381    6.30769468
 O                  1.25768759    8.03129127    6.99713737
 O                  1.70704707    7.07016743    2.98412293
 H                  1.50929646    8.53859509    7.77228483
 N                  0.92791338    8.69500746    4.51431381
 H                  0.42333250    8.62141641    5.37449162
 C                  0.00917306    9.08524887    3.43579358
 H                  0.55164479    9.15527584    2.51603088
 C                 -1.10131793    8.02710922    3.29870838
 C                 -0.62134897   10.45190214    3.76169799
 H                 -0.66341018    7.07802884    3.06983391
 H                 -1.64298768    7.95738577    4.21883813
 O                 -1.99389608    8.40624501    2.24768059
 O                  0.01403257   11.29124168    4.45140899
 H                 -2.68638968    7.74686058    2.16250749
 N                 -1.96508022   10.77531694    3.26187522
 H                 -1.88883359   11.19285485    2.35640906
 C                 -2.62327810   11.71891202    4.17696496
 H                 -2.71517270   11.27559306    5.14646902
 C                 -1.78230498   13.00478884    4.28007895
 C                 -4.02110230   12.06223614    3.63012541
 H                 -0.80965267   12.76551913    4.65645408
 C                 -1.65022917   13.64525281    2.88592642
 C                 -2.47338672   13.99481642    5.23602795
 O                 -4.66146928   11.20826827    2.96388049
 H                 -2.62298440   13.88447384    2.50979825
 H                 -1.06596823   14.53877286    2.95786309
 H                 -1.17007102   12.95764416    2.22148656
 H                 -2.97283252   14.75072197    4.66674628
 H                 -3.18709733   13.47116473    5.83715034
 C                 -1.41829981   14.65052214    6.14616003
 H                 -0.70457671   15.17409604    5.54500436
 H                 -1.89823104   15.33851934    6.81043292
 H                 -0.91897531   13.89449799    6.71541603
 N                 -4.60680072   13.38693720    3.87980284
 H                 -4.27964129   13.73850539    4.75712522
 C                 -6.07260291   13.28129582    3.90912602
 H                 -6.41947828   12.88818610    2.97648719
 C                 -6.50038284   12.34287147    5.05302162
 C                 -6.67947372   14.67860087    4.13146204
 H                 -6.42929576   11.32660267    4.72603559
 C                 -5.57601626   12.55794373    6.26583986
 C                 -7.95433993   12.65230118    5.45528518
 O                 -6.06612724   15.69883632    3.72310198
 H                 -5.64710381   13.57434721    6.59266948
 H                 -5.87303897   11.90611748    7.06068821
 H                 -4.56568274   12.34285326    5.98685143
 H                 -8.59697917   12.50299602    4.61297942
 H                 -8.25085112   12.00026629    6.25021218
 H                 -8.02533832   13.66863004    5.78239717
 N                 -7.97202908   14.82891671    4.81437472
 H                 -8.53553306   14.01924062    4.64965224
 C                 -8.65369040   16.01956365    4.28704753
 H                 -8.04799322   16.88367788    4.46372491
 C                 -8.87736384   15.84907983    2.77281812
 C                -10.01330938   16.19723230    4.98849965
 H                 -7.93293315   15.72918490    2.28422270
 H                 -9.48240343   14.98438073    2.59668294
 O                 -9.53821988   17.00661414    2.25503476
 O                -10.64296261   15.19401571    5.41383171
 H                 -9.67742338   16.90022292    1.31107894
 N                -10.57141074   17.54705137    5.15606554
 H                 -9.82351592   18.20475293    5.24484548
 C                -11.41033214   17.59590579    6.36227369
 H                -12.21608312   16.89877752    6.26578798
 C                -10.56336874   17.23153844    7.59582695
 C                -11.97628327   19.01894263    6.52691318
 H                -10.17041579   16.24322421    7.47874587
 H                 -9.75620882   17.92716646    7.69259267
 C                -11.44374490   17.28812568    8.85842385
 O                -12.18418007   19.73131503    5.51051106
 C                -10.87444343   17.61837157   10.09583184
 C                -12.81430317   17.00960663    8.76977960
 H                 -9.82776337   17.83017384   10.16388681
 C                -11.67608662   17.67091490   11.24416652
 C                -13.61588494   17.06302662    9.91794883
 H                -13.24869372   16.75612880    7.82529102
 H                -11.24152453   17.92253748   12.18909071
 C                -13.04692206   17.39406951   11.15499191
 H                -14.66233629   16.85117482    9.85003205
 H                -13.65909027   17.43525728   12.03150976
 N                -12.27390190   19.55032278    7.86466188
 H                -12.54486338   18.80189563    8.46976742
 C                -13.36844845   20.52700878    7.76424968
 H                -13.07335289   21.32462504    7.11493466
 C                -14.62273733   19.83888043    7.19355722
 C                -13.68411817   21.09294629    9.16130521
 H                -14.40185698   19.43967389    6.22557960
 H                -14.92290827   19.04575642    7.84607868
 C                -15.76223911   20.86865327    7.07488600
 O                -13.50212938   20.38258031   10.18414965
 C                -17.09669055   20.45914634    7.20137884
 C                -15.46280543   22.21722143    6.83883022
 H                -17.32579945   19.42984859    7.38350808
 C                -18.13130182   21.39831135    7.08875247
 C                -16.49702842   23.15590061    6.72619162
 H                -14.44394911   22.52997383    6.74400118
 H                -19.15018868   21.08595592    7.18493913
 C                -17.83137119   22.74647263    6.84993293
 H                -16.26777584   24.18523586    6.54546343
 O                -18.88658597   23.70445664    6.73206689
 H                -19.63283843   23.42656579    7.26791560
 C                  3.53128789    4.72161736    5.92638461
 O                  2.68416579    4.28586652    6.74857129
 C                  5.00672765    4.29534474    6.04105017
 H                  5.45355388    4.29213103    5.06874111
 H                  5.52910731    4.98437952    6.67133603
 H                  5.06272676    3.31347137    6.46252641
 N                -14.19795156   22.46347519    9.29949628
 H                -14.78412519   22.52001005   10.10775477
 H                -13.43164730   23.09825540    9.39844988
 H                -10.44968277   14.48231529    6.58722113

